0 0 0 0
0 1 2 0
0 2 0 0
0 3 0 0
0 4 1 7
0 5 0 10
0 6 0 4
0 7 0 4
0 8 1 11
0 9 0 14
0 10 1 19
0 11 0 4
0 12 0 14
0 13 1 7
0 14 0 9
0 15 0 20
0 16 0 18
0 17 0 19
0 18 0 19
0 19 0 14
0 20 0 16
0 21 1 20
0 22 0 23
0 23 0 27
0 24 0 21
0 25 0 23
0 26 0 26
0 27 0 20
0 28 2 23
0 29 0 31
0 30 1 26
0 31 0 33
